Translating instance to solver...

Set parameter TimeLimit to value 28800
Gurobi Optimizer version 11.0.2 build v11.0.2rc0 (linux64 - "Ubuntu 22.04.4 LTS")

CPU model: Intel(R) Xeon(R) Gold 5120 CPU @ 2.20GHz, instruction set [SSE2|AVX|AVX2|AVX512]
Thread count: 28 physical cores, 56 logical processors, using up to 28 threads

Academic license 2463511 - for non-commercial use only - registered to lu___@cefet-rj.br
Optimize a model with 12725 rows, 7643 columns and 31653 nonzeros
Model fingerprint: 0x25688c32
Variable types: 1 continuous, 7642 integer (7620 binary)
Coefficient statistics:
  Matrix range     [1e+00, 1e+05]
  Objective range  [3e-01, 8e-01]
  Bounds range     [1e+00, 2e+01]
  RHS range        [1e+00, 8e+01]
Presolve removed 10507 rows and 6685 columns
Presolve time: 0.16s
Presolved: 2218 rows, 958 columns, 7429 nonzeros
Variable types: 0 continuous, 958 integer (937 binary)

Root relaxation: objective 1.645175e+00, 550 iterations, 0.01 seconds (0.02 work units)

    Nodes    |    Current Node    |     Objective Bounds      |     Work
 Expl Unexpl |  Obj  Depth IntInf | Incumbent    BestBd   Gap | It/Node Time

     0     0    1.64517    0   50          -    1.64517      -     -    0s
H    0     0                       2.5735640    1.64517  36.1%     -    0s
     0     0    1.75167    0  193    2.57356    1.75167  31.9%     -    0s
     0     0    1.79301    0  129    2.57356    1.79301  30.3%     -    0s
     0     0    1.81767    0  169    2.57356    1.81767  29.4%     -    0s
     0     0    1.81767    0  169    2.57356    1.81767  29.4%     -    0s
     0     0    1.81767    0  160    2.57356    1.81767  29.4%     -    0s
     0     0    1.81767    0  160    2.57356    1.81767  29.4%     -    0s
H    0     0                       2.2676730    1.81767  19.8%     -    0s
     0     0    1.85229    0   60    2.26767    1.85229  18.3%     -    0s
     0     0    1.86807    0   66    2.26767    1.86807  17.6%     -    0s
     0     0    1.89935    0  143    2.26767    1.89935  16.2%     -    0s
     0     0    1.90166    0   78    2.26767    1.90166  16.1%     -    0s
     0     0    1.90166    0   75    2.26767    1.90166  16.1%     -    1s
     0     0    1.90166    0  148    2.26767    1.90166  16.1%     -    1s
     0     0    1.90166    0  120    2.26767    1.90166  16.1%     -    1s
     0     0    1.90166    0  161    2.26767    1.90166  16.1%     -    1s
     0     0    1.90166    0  177    2.26767    1.90166  16.1%     -    1s
     0     0    1.90166    0  168    2.26767    1.90166  16.1%     -    1s
     0     0    1.90166    0  119    2.26767    1.90166  16.1%     -    1s
     0     2    1.90166    0  119    2.26767    1.90166  16.1%     -    1s

Cutting planes:
  Learned: 48
  Gomory: 3
  Implied bound: 51
  MIR: 32
  Zero half: 5
  RLT: 55
  Relax-and-lift: 27
  BQP: 18

Explored 542 nodes (41736 simplex iterations) in 2.52 seconds (1.96 work units)
Thread count was 28 (of 56 available processors)

Solution count 2: 2.26767 2.57356 

Optimal solution found (tolerance 1.00e-04)
Best objective 2.267673000000e+00, best bound 2.267673000000e+00, gap 0.0000%

Solver Wallclock Time (for this epsilon): 2.522716999053955 s
Python wallclock Time (for this epsilon): 3.5454084873199463 s


Total Elapsed Time (since program call): 27.70997405052185 s

Results:

I = 2.267673 mA
C = 87.0 points
C ~= 34.800000000000004 km^2

Minimum Epsilon for this instance = 10
Maximum Epsilon for this instance = 100

Current Epsilon = 80


Preprocessing Time (for this epsilon): 0.003402233123779297 s


Updated solution vectors:
sol_I = [-0.611782,-1.061782,-1.061782,-1.061782,-1.061782,-1.511782,-1.511782,-2.267673]
sol_C = [14.0,48.0,48.0,49.0,50.0,73.0,70.0,87.0]
sol_eps = [10,20,30,40,50,60,70,80]
sol_gap = [0.0,0.0,0.0,0.0,0.0,0.0,1.6578947303891312e-07,0.0]
